Route 1: 5 3 7 8 10 11 9 6 4 12 2 1

Route 2: 13 17 18 19 15 16 14 21 20

Route 3: 32 25 27 29 30 28 26 23 22 24 31

Route 4: 34 33 35 38 37 36 99 97

Route 5: 43 42 41 40 44 46 39 75 82 81 73

Route 6: 61 47 52 50 51 48 45 49

Route 7: 55 54 53 56 58 60 59 57

Route 8: 67 65 63 62 70 71 64 68 66 69 72

Route 9: 83 78 76 74 84 77 79 80 86 85 89

Route 10: 90 87 95 92 93 94 88 91 96 98

Route 11: 100

Vehicles: 11

Distance: 1537.03

